Name: EasyAcademy1
Courses: 134
Rooms: 27
Days: 5
Periods_per_day: 5
Curricula: 37
Constraints: 82

COURSES:
c1 t4 2 2 5
c2 t5 3 3 35
c3 t6 3 3 140
c4 t7 3 3 20
cU10 t9 3 3 15
c7 t10 3 3 100
c8 t11 3 3 5
c9 t12 3 3 20
c10 t13 3 3 5
c11 t14 3 3 10
c12 t15 3 3 15
c13 t16 3 3 23
c14 t17 3 3 25
c15 t18 2 2 80
cU1 t20 3 3 90
c18 t19 3 3 40
c19 t21 3 3 40
c20 t22 3 3 25
c21 t23 3 3 35
c22 t23 3 3 50
c23 t24 3 3 140
c24 t25 3 3 20
cU2 t26 3 3 15
c27 t28 3 3 50
cU9 t29 3 3 10
c30 t30 3 3 140
c31 t31 3 3 5
c32 t32 3 3 5
c33 t32 3 3 5
c34 t33 1 1 10
c35 t34 1 1 10
c36 t35 3 3 10
c37 t36 3 3 25
c38 t37 3 3 30
cU3 t38 1 1 10
c41 t41 1 10 0
c42 t27 2 2 100
c43 t41 2 2 140
cU15 t42 2 2 0
c48 t42 1 1 10
c52 t44 3 3 0
c54 t43 4 4 0
c56 t45 4 4 0
c57 t44 1 1 10
c58 t43 2 2 0
c59 t45 2 2 34
c60 t44 2 2 70
c65 t48 3 3 140
c66 t49 3 3 200
c67 t50 3 3 200
c68 t51 3 3 200
cU12 t52 3 3 140
c71 t53 3 3 10
c72 t24 3 3 5
c73 t54 3 3 110
cU11 t55 2 2 60
c76 t56 3 3 50
c77 t52 3 3 5
c78 t57 3 3 150
c79 t58 3 3 160
c80 t59 3 3 150
c81 t59 3 3 35
c82 t60 1 1 10
c83 t61 3 3 130
c84 t30 3 3 140
c85 t62 3 3 60
c87 t64 3 3 15
c88 t65 3 3 25
c89 t66 3 3 5
c90 t67 2 2 100
c91 t68 3 3 15
c92 t69 3 3 15
cU13 t70 3 3 14
c95 t71 3 3 10
c96 t72 2 2 5
c98 t20 3 3 34
c99 t74 3 3 200
c100 t7 3 3 200
c101 t75 3 3 200
cU4 t77 3 3 200
c104 t66 3 3 200
c105 no_teacher1 1 1 10
c106 t78 1 1 10
c107 t65 3 3 20
c108 t75 3 3 40
c109 t170 3 3 5
c110 t79 3 3 180
c111 t80 1 1 10
c114 t83 3 3 120
c115 t84 3 3 120
c116 t85 3 3 145
c117 t78 2 2 60
cU5 t83 3 3 20
c121 t88 3 3 60
c122 t78 3 3 30
cU6 t87 3 3 20
cU7 t78 3 3 120
c129 t91 3 3 320
c130 t92 3 3 250
c131 t93 3 3 250
c132 t92 3 3 15
c133 t94 3 3 20
c134 t95 3 3 20
c135 t93 3 3 15
c136 t96 3 3 85
cU8 t35 3 3 45
c139 t33 3 3 10
cU14 t70 3 3 20
c142 t89 3 3 110
c143 t58 3 3 80
c144 t77 3 3 35
c145 t73 3 3 129
c146 t98 2 2 10
c281 t49 3 3 140
c335 t69 3 3 90
c4390 t44 1 1 10
c4391 t44 2 2 80
c4393 t44 2 2 30
c4394 t42 2 2 20
c4395 t81 3 3 200
c4396 t1043 3 3 200
c4397 t82 3 3 200
c4402 t139 2 2 90
c4407 t166 3 3 5
c4419 t164 3 3 12
c4420 t47 3 3 40
c4422 t165 2 2 10
c4423 t52 2 2 100
c4424 t51 1 1 150
c4425 t50 1 1 90
c4429 t49 1 1 120
c4430 t49 1 1 100
c4432 t30 1 1 120
c4454 t48 1 1 10

ROOMS:
r23 200
r24 100
r25 100
r3 95
r4 50
r6 25
r7 25
r8 25
r9 65
r10 25
r20 145
r162 50
r5 50
r11 60
r12 35
r13 50
r14 30
r15 16
r16 36
r17 15
r18 25
r19 12
r21 120
r22 15
r26 480
r27 200
r28 480

CURRICULA:
cu1 4 c27 c76 c9 c139
cu14 4 c2 c23 c81 c144
cu15 6 c59 c98 c4 c18 c89 c109
cu16 8 c60 c18 c20 c37 c38 c48 c107 c134
cu17 5 c22 cU14 c36 c132 c135
cu224 3 c35 c335 c21
cu235 2 c15 c4402
cu248 4 c145 c105 c106 c117
cu305 7 cU11 c85 cU3 c12 c14 c41 c91
cu310 1 cU6
cu447 9 cU4 c52 c54 c101 c130 c4390 c4391 c4395 c4397
cu472 4 c57 c100 c111 c129
cu478A 8 cU4 c54 c56 c104 c131 c4390 c4391 c4396
cu478B 8 cU4 c54 c56 c104 c131 c4390 c4391 c4397
cu479A 10 c67 c68 c79 c80 c115 c116 c4390 c4391 c4424 c4425
cu479B 9 c67 c68 c79 c80 c115 c116 c4390 c4391 c4394
cu479C 9 c67 c68 c79 c80 c115 c116 c4390 c4391 c4420
cu490A 10 c66 c67 c78 c79 c114 c115 c4390 c4391 c4425 c4430
cu490B 9 c66 c67 c78 c79 c114 c115 c4390 cU15 c4394
cu490C 9 c66 c67 c78 c79 c114 c115 c4390 cU15 c4420
cu491 7 cU12 c84 c4423 c4432 c100 c110 c129
cu492 5 c43 c110 c129 c281 c4429
cu493A 8 cU14 c8 c9 c10 c18 c22 c23 c37
cu493B 8 cU14 c8 c9 c10 c18 c95 c139 c146
cu514A 9 cU9 cU10 c1 c31 c32 c33 c72 c77 c96
cu514B 9 cU9 cU10 c1 c31 c32 c33 c146 c4419 c4422
cu517 7 cU1 cU15 c11 c99 c108 c143 c4407
cu518 8 cU7 cU15 c34 c82 c83 c116 c121 c335
cu519 8 c99 cU13 cU8 cU15 c13 c19 c88 c136
cu521 7 c7 c42 c90 cU15 c99 c136 c143
cu527 5 c3 c30 c65 c4393 c4454
cu539 3 cU5 c15 c4402
cu540 2 c87 c92
cu541 1 c71
cu542 1 c122
cu544 4 c58 c73 c83 c142
cu550 6 c23 cU2 cU15 c21 c24 c133

UNAVAILABILITY_CONSTRAINTS:
c20 0 2
c20 1 0
c20 1 1
c31 0 1
c31 0 2
c31 3 1
c31 3 2
c34 2 2
c34 2 3
c34 2 4
cU3 0 0
cU3 0 1
cU3 0 2
cU3 0 3
cU3 0 4
cU3 1 0
cU3 1 1
cU3 1 2
cU3 2 0
cU3 2 1
cU3 2 2
cU3 2 3
cU3 2 4
c67 0 4
c67 1 4
c67 2 4
c67 3 4
c67 4 4
cU11 0 0
cU11 0 1
cU11 0 2
cU11 0 3
cU11 0 4
cU11 1 0
cU11 1 1
cU11 1 2
cU11 2 0
cU11 2 1
cU11 2 2
cU11 2 3
cU11 2 4
c79 0 2
c79 0 3
c79 0 4
c80 0 4
c81 0 4
cU4 0 2
cU4 0 3
cU4 0 4
cU4 1 2
cU4 1 3
cU4 1 4
cU4 2 2
cU4 2 3
cU4 2 4
cU4 3 2
cU4 3 3
cU4 3 4
cU4 4 2
cU4 4 3
cU4 4 4
c139 2 2
c139 2 3
c139 2 4
c143 0 2
c143 0 3
c143 0 4
c145 0 3
c145 0 4
c145 1 3
c145 1 4
c145 2 3
c145 2 4
c145 3 3
c145 3 4
c145 4 3
c145 4 4
c4425 0 4
c4425 1 4
c4425 2 4
c4425 3 4
c4425 4 4

END.
